(declare-const X String)
; ^([\w\-\.]+)\s.*$
(assert (not (str.in_re X (re.++ (re.+ (re.union (str.to_re "-") (str.to_re ".") (re.range "0" "9") (re.range "A" "Z") (re.range "a" "z") (str.to_re "_"))) (re.union (str.to_re " ") (str.to_re "\u{9}") (str.to_re "\u{a}") (str.to_re "\u{c}") (str.to_re "\u{d}")) (re.* re.allchar) (str.to_re "\u{a}")))))
; aohobygi\x2fzwiw\s+\+The\+password\+is\x3A
(assert (str.in_re X (re.++ (str.to_re "aohobygi/zwiw") (re.+ (re.union (str.to_re " ") (str.to_re "\u{9}") (str.to_re "\u{a}") (str.to_re "\u{c}") (str.to_re "\u{d}"))) (str.to_re "+The+password+is:\u{a}"))))
; \x7D\x7BTrojan\x3A\w+by\d+to\w+dddlogin\x2Edudu\x2EcomSurveillanceIPOblivion
(assert (str.in_re X (re.++ (str.to_re "}{Trojan:") (re.+ (re.union (re.range "0" "9") (re.range "A" "Z") (re.range "a" "z") (str.to_re "_"))) (str.to_re "by") (re.+ (re.range "0" "9")) (str.to_re "to") (re.+ (re.union (re.range "0" "9") (re.range "A" "Z") (re.range "a" "z") (str.to_re "_"))) (str.to_re "dddlogin.dudu.comSurveillance\u{13}IPOblivion\u{a}"))))
; EvilFTP\s+%3f[^\n\r]*\.bmpfilename\x3D\x22
(assert (not (str.in_re X (re.++ (str.to_re "EvilFTP") (re.+ (re.union (str.to_re " ") (str.to_re "\u{9}") (str.to_re "\u{a}") (str.to_re "\u{c}") (str.to_re "\u{d}"))) (str.to_re "%3f") (re.* (re.union (str.to_re "\u{a}") (str.to_re "\u{d}"))) (str.to_re ".bmpfilename=\u{22}\u{a}")))))
; /filename=[^\n]*\x2ejnlp/i
(assert (str.in_re X (re.++ (str.to_re "/filename=") (re.* (re.comp (str.to_re "\u{a}"))) (str.to_re ".jnlp/i\u{a}"))))
(check-sat)

(exit)
